problems/csplib-prob013/ProgressivePartyProblem-models/noch/O2/lingeling/model_3_1-Ian06-solution000001.solution
language Essence 1.3

letting hosts be {1, 4, 6, 8, 10}
letting sched be
        {function(1 --> 1, 2 --> 1, 3 --> 6, 4 --> 4, 5 --> 10, 6 --> 6, 7 --> 6, 8 --> 8, 9 --> 10, 10 --> 10),
         function(1 --> 1, 2 --> 4, 3 --> 4, 4 --> 4, 5 --> 4, 6 --> 6, 7 --> 8, 8 --> 8, 9 --> 1, 10 --> 10),
         function(1 --> 1, 2 --> 6, 3 --> 8, 4 --> 4, 5 --> 1, 6 --> 6, 7 --> 10, 8 --> 8, 9 --> 4, 10 --> 10),
         function(1 --> 1, 2 --> 8, 3 --> 10, 4 --> 4, 5 --> 6, 6 --> 6, 7 --> 1, 8 --> 8, 9 --> 8, 10 --> 10),
         function(1 --> 1, 2 --> 10, 3 --> 1, 4 --> 4, 5 --> 8, 6 --> 6, 7 --> 4, 8 --> 8, 9 --> 6, 10 --> 10)}
